\ This file has been generated by DOcplex
\ ENCODING=ISO-8859-1
\Problem name: LABS of size 2

Minimize
 obj: [ 2 C_1^2 ]/2
Subject To
 c1: - 2 b_1 - 2 b_2 + 4 b_y_1_2 - C_1 = -1
 c2: b_y_1_2 - 0.500000000000 b_1 - 0.500000000000 b_2 <= 0
 c3: b_y_1_2 - b_1 - b_2 >= -1

Bounds
 0 <= b_1 <= 1
 0 <= b_2 <= 1
 0 <= b_y_1_2 <= 1
 -1 <= C_1 <= 1

Binaries
 b_1 b_2 b_y_1_2

Generals
 C_1
End
